(set-option :auto-config false)
(set-option :produce-unsat-cores false)
(set-option :smt.mbqi.max_iterations 10000000)
(set-option :smt.relevancy 0)
(declare-fun c0 () Bool)
(define-fun e1 () Bool (not c0))
(declare-fun c2 () (_ BitVec 64))
(define-fun e3 () (_ BitVec 64) (_ bv1024 64))
(define-fun e4 () Bool (bvult c2 e3))
(define-fun e5 () (_ BitVec 64) (_ bv1 64))
(declare-fun c6 ((_ BitVec 64)) (_ BitVec 64))
(define-fun e7 () (_ BitVec 64) (c6 c2))
(define-fun e8 () Bool (= e5 e7))
(define-fun e9 () Bool (and e1 e4 e8))
(define-fun e10 () Bool (and e4 e8))
(define-fun e11 () Bool (not e10))
(define-fun e12 () Bool (and e1 e11))
(define-fun e13 () Bool (or c0 e12))
(define-fun e14 () Bool (or e9 e13))
(define-fun e15 () Bool (not e14))
(assert e15)
(check-sat)
